; benchmark generated from python API
(set-info :status unknown)
(declare-fun x_months () Int)
(declare-fun x_beta () Int)
(declare-fun y_months () Int)
(declare-fun y_beta () Int)
(assert
 (<= (- 1202) x_months))
(assert
 (>= 1209 x_months))
(assert
 (>= x_beta 0))
(assert
 (let ((?x3970 (+ x_months 24003)))
 (let ((?x2031 (- ?x3970 (* (div (- ?x3970 1) 12) 12))))
 (let ((?x2349 (ite (or (= ?x2031 4) (= ?x2031 6) (= ?x2031 9) (= ?x2031 11)) 30 31)))
 (let (($x1411 (and (= (mod (div (- ?x3970 1) 12) 4) 0) (and (distinct (mod (div (- ?x3970 1) 12) 100) 0) true))))
 (let ((?x213 (ite (or $x1411 (= (mod (div (- ?x3970 1) 12) 400) 0)) 29 28)))
 (< x_beta (ite (= ?x2031 2) ?x213 ?x2349))))))))
(assert
 (<= (- 1202) y_months))
(assert
 (>= 1209 y_months))
(assert
 (>= y_beta 0))
(assert
 (let ((?x3550 (+ y_months 24003)))
 (let ((?x1913 (- ?x3550 (* (div (- ?x3550 1) 12) 12))))
 (let ((?x690 (ite (or (= ?x1913 4) (= ?x1913 6) (= ?x1913 9) (= ?x1913 11)) 30 31)))
 (let (($x3518 (and (= (mod (div (- ?x3550 1) 12) 4) 0) (and (distinct (mod (div (- ?x3550 1) 12) 100) 0) true))))
 (let ((?x1211 (ite (or $x3518 (= (mod (div (- ?x3550 1) 12) 400) 0)) 29 28)))
 (< y_beta (ite (= ?x1913 2) ?x1211 ?x690))))))))
(assert
 (let (($x3978 (and (= x_months (- (+ (* 2019 12) 12) 24003)) (<= 30 x_beta))))
 (or (> x_months (- (+ (* 2019 12) 12) 24003)) $x3978)))
(assert
 (let (($x3202 (and (= x_months (- (+ (* 2020 12) 2) 24003)) (>= 0 x_beta))))
 (or (< x_months (- (+ (* 2020 12) 2) 24003)) $x3202)))
(assert
 (let ((?x3746 (+ x_beta 1)))
 (let ((?x972 (+ (+ x_months 12) 24003)))
 (let ((?x1495 (- ?x972 (* (div (- ?x972 1) 12) 12))))
 (let ((?x2048 (ite (or (= ?x1495 4) (= ?x1495 6) (= ?x1495 9) (= ?x1495 11)) 30 31)))
 (let (($x2559 (and (= (mod (div (- ?x972 1) 12) 4) 0) (and (distinct (mod (div (- ?x972 1) 12) 100) 0) true))))
 (let (($x4076 (or $x2559 (= (mod (div (- ?x972 1) 12) 400) 0))))
 (let ((?x3884 (ite (= ?x1495 2) (ite $x4076 29 28) ?x2048)))
 (let (($x1986 (> 1 ?x3746)))
 (let ((?x2429 (ite $x1986 1 (ite (> ?x3746 ?x3884) ?x3884 ?x3746))))
 (let ((?x2989 (ite (> 1 ?x2429) 1 (ite (> ?x2429 ?x3884) ?x3884 ?x2429))))
 (let ((?x2895 (ite (= 2 ?x1495) (ite $x4076 31 31) (ite (= 1 ?x1495) (ite $x4076 0 0) 0))))
 (let ((?x3890 (ite (= 4 ?x1495) (ite $x4076 91 90) (ite (= 3 ?x1495) (ite $x4076 60 59) ?x2895))))
 (let ((?x2173 (ite (= 6 ?x1495) (ite $x4076 152 151) (ite (= 5 ?x1495) (ite $x4076 121 120) ?x3890))))
 (let ((?x4227 (ite (= 8 ?x1495) (ite $x4076 213 212) (ite (= 7 ?x1495) (ite $x4076 182 181) ?x2173))))
 (let ((?x1239 (ite (= 10 ?x1495) (ite $x4076 274 273) (ite (= 9 ?x1495) (ite $x4076 244 243) ?x4227))))
 (let ((?x4341 (ite (= 12 ?x1495) (ite $x4076 335 334) (ite (= 11 ?x1495) (ite $x4076 305 304) ?x1239))))
 (let ((?x3530 (+ (* 365 (- (div (- ?x972 1) 12) 1)) (div (- (div (- ?x972 1) 12) 1) 4))))
 (let ((?x821 (+ (- ?x3530 (div (- (div (- ?x972 1) 12) 1) 100)) (div (- (div (- ?x972 1) 12) 1) 400))))
 (let ((?x2964 (+ (+ (- (+ (+ ?x821 ?x4341) (- ?x2989 1)) 730179) 0) 730179)))
 (let ((?x3873 (mod ?x2964 146097)))
 (let ((?x915 (div ?x3873 36524)))
 (let ((?x707 (ite (<= 4 ?x915) 3 ?x915)))
 (let ((?x2002 (- ?x3873 (* ?x707 36524))))
 (let ((?x1231 (mod ?x2002 1461)))
 (let ((?x3838 (div ?x1231 365)))
 (let ((?x1289 (ite (<= 4 ?x3838) 3 ?x3838)))
 (let ((?x850 (+ (+ (* (div ?x2964 146097) 400) (* ?x707 100)) (* (div ?x2002 1461) 4))))
 (let ((?x585 (+ (+ ?x850 ?x1289) 1)))
 (let (($x4057 (or (and (= (mod ?x585 4) 0) (and (distinct (mod ?x585 100) 0) true)) (= (mod ?x585 400) 0))))
 (let ((?x3272 (- ?x1231 (* ?x1289 365))))
 (let ((?x2485 (ite $x4057 31 31)))
 (let (($x2172 (>= ?x3272 ?x2485)))
 (let ((?x835 (ite $x2172 (+ (- ?x3272 ?x2485) 1) (+ (- ?x3272 (ite $x4057 0 0)) 1))))
 (let ((?x2072 (ite $x4057 60 59)))
 (let (($x4369 (>= ?x3272 ?x2072)))
 (let ((?x647 (ite $x4057 91 90)))
 (let (($x1739 (>= ?x3272 ?x647)))
 (let ((?x4135 (ite $x1739 (+ (- ?x3272 ?x647) 1) (ite $x4369 (+ (- ?x3272 ?x2072) 1) ?x835))))
 (let ((?x3895 (ite $x4057 121 120)))
 (let (($x2339 (>= ?x3272 ?x3895)))
 (let ((?x3067 (ite $x4057 152 151)))
 (let (($x626 (>= ?x3272 ?x3067)))
 (let ((?x2094 (ite $x626 (+ (- ?x3272 ?x3067) 1) (ite $x2339 (+ (- ?x3272 ?x3895) 1) ?x4135))))
 (let ((?x1055 (ite $x4057 182 181)))
 (let (($x3118 (>= ?x3272 ?x1055)))
 (let ((?x2396 (ite $x4057 213 212)))
 (let (($x1230 (>= ?x3272 ?x2396)))
 (let ((?x3499 (ite $x1230 (+ (- ?x3272 ?x2396) 1) (ite $x3118 (+ (- ?x3272 ?x1055) 1) ?x2094))))
 (let ((?x398 (ite $x4057 244 243)))
 (let (($x4295 (>= ?x3272 ?x398)))
 (let ((?x3229 (ite $x4057 274 273)))
 (let (($x4101 (>= ?x3272 ?x3229)))
 (let ((?x2748 (ite $x4101 (+ (- ?x3272 ?x3229) 1) (ite $x4295 (+ (- ?x3272 ?x398) 1) ?x3499))))
 (let ((?x4326 (ite $x4057 305 304)))
 (let (($x3934 (>= ?x3272 ?x4326)))
 (let ((?x1888 (ite $x4057 335 334)))
 (let (($x4224 (>= ?x3272 ?x1888)))
 (let ((?x4707 (ite $x4224 (+ (- ?x3272 ?x1888) 1) (ite $x3934 (+ (- ?x3272 ?x4326) 1) ?x2748))))
 (let (($x879 (= 0 0)))
 (let ((?x2908 (ite $x2339 5 (ite $x1739 4 (ite $x4369 3 (ite $x2172 2 1))))))
 (let ((?x4236 (ite $x4295 9 (ite $x1230 8 (ite $x3118 7 (ite $x626 6 ?x2908))))))
 (let ((?x3454 (+ (* (ite $x879 (div (- ?x972 1) 12) ?x585) 12) (ite $x879 ?x1495 (ite $x4224 12 (ite $x3934 11 (ite $x4101 10 ?x4236)))))))
 (and (= y_months (- ?x3454 24003)) (= y_beta (- (ite $x879 ?x2989 ?x4707) 1))))))))))))))))))))))))))))))))))))))))))))))))))))))))))))))))))
(assert
 (let ((?x3746 (+ x_beta 1)))
(let ((?x3938 (+ (+ x_months 0) 24003)))
(let ((?x490 (- ?x3938 (* (div (- ?x3938 1) 12) 12))))
(let ((?x1617 (ite (or (= ?x490 4) (= ?x490 6) (= ?x490 9) (= ?x490 11)) 30 31)))
(let (($x1479 (and (= (mod (div (- ?x3938 1) 12) 4) 0) (and (distinct (mod (div (- ?x3938 1) 12) 100) 0) true))))
(let (($x2444 (or $x1479 (= (mod (div (- ?x3938 1) 12) 400) 0))))
(let ((?x3908 (ite (= ?x490 2) (ite $x2444 29 28) ?x1617)))
(let (($x1986 (> 1 ?x3746)))
(let ((?x3952 (ite $x1986 1 (ite (> ?x3746 ?x3908) ?x3908 ?x3746))))
(let ((?x1406 (ite (> 1 ?x3952) 1 (ite (> ?x3952 ?x3908) ?x3908 ?x3952))))
(let ((?x4206 (ite (= 2 ?x490) (ite $x2444 31 31) (ite (= 1 ?x490) (ite $x2444 0 0) 0))))
(let ((?x2423 (ite (= 4 ?x490) (ite $x2444 91 90) (ite (= 3 ?x490) (ite $x2444 60 59) ?x4206))))
(let ((?x2875 (ite (= 6 ?x490) (ite $x2444 152 151) (ite (= 5 ?x490) (ite $x2444 121 120) ?x2423))))
(let ((?x4303 (ite (= 8 ?x490) (ite $x2444 213 212) (ite (= 7 ?x490) (ite $x2444 182 181) ?x2875))))
(let ((?x1329 (ite (= 10 ?x490) (ite $x2444 274 273) (ite (= 9 ?x490) (ite $x2444 244 243) ?x4303))))
(let ((?x2074 (ite (= 12 ?x490) (ite $x2444 335 334) (ite (= 11 ?x490) (ite $x2444 305 304) ?x1329))))
(let ((?x3976 (+ (* 365 (- (div (- ?x3938 1) 12) 1)) (div (- (div (- ?x3938 1) 12) 1) 4))))
(let ((?x410 (+ (- ?x3976 (div (- (div (- ?x3938 1) 12) 1) 100)) (div (- (div (- ?x3938 1) 12) 1) 400))))
(let ((?x2538 (+ (+ (- (+ (+ ?x410 ?x2074) (- ?x1406 1)) 730179) 365) 730179)))
(let ((?x3977 (mod ?x2538 146097)))
(let ((?x3567 (div ?x3977 36524)))
(let ((?x2790 (ite (<= 4 ?x3567) 3 ?x3567)))
(let ((?x2359 (- ?x3977 (* ?x2790 36524))))
(let ((?x2675 (mod ?x2359 1461)))
(let ((?x3225 (div ?x2675 365)))
(let ((?x415 (ite (<= 4 ?x3225) 3 ?x3225)))
(let ((?x2311 (+ (+ (* (div ?x2538 146097) 400) (* ?x2790 100)) (* (div ?x2359 1461) 4))))
(let ((?x4147 (+ (+ ?x2311 ?x415) 1)))
(let (($x4306 (or (and (= (mod ?x4147 4) 0) (and (distinct (mod ?x4147 100) 0) true)) (= (mod ?x4147 400) 0))))
(let ((?x3660 (- ?x2675 (* ?x415 365))))
(let ((?x4082 (ite $x4306 31 31)))
(let (($x3262 (>= ?x3660 ?x4082)))
(let ((?x893 (ite $x3262 (+ (- ?x3660 ?x4082) 1) (+ (- ?x3660 (ite $x4306 0 0)) 1))))
(let ((?x4277 (ite $x4306 60 59)))
(let (($x1090 (>= ?x3660 ?x4277)))
(let ((?x860 (ite $x4306 91 90)))
(let (($x3367 (>= ?x3660 ?x860)))
(let ((?x2751 (ite $x3367 (+ (- ?x3660 ?x860) 1) (ite $x1090 (+ (- ?x3660 ?x4277) 1) ?x893))))
(let ((?x3953 (ite $x4306 121 120)))
(let (($x1274 (>= ?x3660 ?x3953)))
(let ((?x2660 (ite $x4306 152 151)))
(let (($x3744 (>= ?x3660 ?x2660)))
(let ((?x1689 (ite $x3744 (+ (- ?x3660 ?x2660) 1) (ite $x1274 (+ (- ?x3660 ?x3953) 1) ?x2751))))
(let ((?x337 (ite $x4306 182 181)))
(let (($x2556 (>= ?x3660 ?x337)))
(let ((?x561 (ite $x4306 213 212)))
(let (($x4300 (>= ?x3660 ?x561)))
(let ((?x4406 (ite $x4300 (+ (- ?x3660 ?x561) 1) (ite $x2556 (+ (- ?x3660 ?x337) 1) ?x1689))))
(let ((?x2604 (ite $x4306 244 243)))
(let (($x3201 (>= ?x3660 ?x2604)))
(let ((?x3791 (ite $x4306 274 273)))
(let (($x4145 (>= ?x3660 ?x3791)))
(let ((?x1751 (ite $x4145 (+ (- ?x3660 ?x3791) 1) (ite $x3201 (+ (- ?x3660 ?x2604) 1) ?x4406))))
(let ((?x1646 (ite $x4306 305 304)))
(let (($x3542 (>= ?x3660 ?x1646)))
(let ((?x2330 (ite $x4306 335 334)))
(let (($x2118 (>= ?x3660 ?x2330)))
(let ((?x4027 (ite $x2118 (+ (- ?x3660 ?x2330) 1) (ite $x3542 (+ (- ?x3660 ?x1646) 1) ?x1751))))
(let (($x4150 (= 365 0)))
(let ((?x903 (ite $x1274 5 (ite $x3367 4 (ite $x1090 3 (ite $x3262 2 1))))))
(let ((?x3793 (ite $x3201 9 (ite $x4300 8 (ite $x2556 7 (ite $x3744 6 ?x903))))))
(let ((?x789 (ite $x2118 12 (ite $x3542 11 (ite $x4145 10 ?x3793)))))
(let ((?x1139 (+ (* (ite $x4150 (div (- ?x3938 1) 12) ?x4147) 12) (ite $x4150 ?x490 ?x789))))
(let (($x368 (and (= y_months (- ?x1139 24003)) (= y_beta (- (ite $x4150 ?x1406 ?x4027) 1)))))
(not $x368))))))))))))))))))))))))))))))))))))))))))))))))))))))))))))))))))
(check-sat)
